c Fully Dense Acyclic Network
c for Max-Flow
c Arcs with special capacities
p max         5        10
n             1  s
n             5  t
a         1         2         3
a         1         3         1
a         1         4         1
a         1         5         1
a         2         3         1
a         2         4         1
a         2         5         1
a         3         4         1
a         3         5         1
a         4         5         3
c
c End of file
